proyfinal/src/viki/013/experimentInOfficeAgust.take6.output/202f94e6-7ebb-4ba5-87b5-7d076c5bfde7.als.dat
{'cnf.clauses': '118081',
 'cnf.totvars': '69608',
 'conflict literals': '10',
 'conflicts': '8',
 'decisions': '1196',
 'memused.mb': '16.73',
 'outcome': 'UNSAT',
 'propagations': '24718',
 'restarts': '1',
 'solver.msecs': 35,
 'task.msecs': 92}
