proyfinal/src/viki/013/experimentInOfficeAgust.take6.output/202f94e6-7ebb-4ba5-87b5-7d076c5bfde7.als.out
Reading from standard input... Use '--help' for help.
============================[ Problem Statistics ]=============================
|                                                                             |
|  Number of variables:         69608                                         |
|  Number of clauses:          118081                                         |
|  Parse time:                   0.02 s                                       |
|                                                                             |
============================[ Search Statistics ]==============================
| Conflicts |          ORIGINAL         |          LEARNT          | Progress |
|           |    Vars  Clauses Literals |    Limit  Clauses Lit/Cl |          |
===============================================================================
===============================================================================
restarts              : 1
conflicts             : 8              (223 /sec)
decisions             : 1196           (0.00 % random) (33363 /sec)
propagations          : 24718          (689522 /sec)
conflict literals     : 10             (0.00 % deleted)
Memory used           : 16.73 MB
CPU time              : 0.035848 s

UNSATISFIABLE
